12
1 6
2 3
3 8
4 9
5 6
6 5
7 9
8 4
9 8
10 2
11 7
37
0 1 85
1 0 85
0 2 30
2 0 30
0 3 39
3 0 39
0 4 88
4 0 88
0 5 88
5 0 88
0 6 49
6 0 49
0 7 6
7 0 6
0 8 65
8 0 65
0 9 63
9 0 63
0 10 92
10 0 92
0 11 13
11 0 13
1 5 55
1 6 86
1 7 5
1 10 8
1 11 80
2 6 43
2 9 98
2 11 10
3 8 24
3 10 32
4 7 62
4 10 39
6 8 35
7 10 24
9 10 60
